# Simple LAMMPS input script for testing

# Set the simulation box dimensions
units lj
dimension 3
boundary p p p

# Define the number of particles and their properties
atom_style atomic
lattice fcc 0.8442
region box block 0 10 0 10 0 10
create_box 1 box
create_atoms 1 box

# Set particle mass and interaction potential
mass 1 1.0
pair_style lj/cut 2.5
pair_coeff 1 1 1.0 1.0 2.5

# Set timestep and simulation length
timestep 0.005
run 100
